
Gurobi 11.0.3 (linux64) logging started Fri Nov 22 19:03:18 2024

Set parameter LogFile to value "/home/yihong/Coding/OR_SUC/SUC_results_bigM100000_thread4/case24_ieee_rts_theta0.5_epsilon0.025_gurobi_seed660000_num_gen100_N_WDR100_load_scaling_factor1_proposed_T28quadra_cost.txt"
Set parameter TimeLimit to value 3600
Gurobi Optimizer version 11.0.3 build v11.0.3rc0 (linux64 - "Ubuntu 20.04.6 LTS")

CPU model: AMD EPYC 7532 32-Core Processor, instruction set [SSE2|AVX|AVX2]
Thread count: 64 physical cores, 128 logical processors, using up to 4 threads

Optimize a model with 60682 rows, 34821 columns and 827226 nonzeros
Model fingerprint: 0xb1f32bb8
Model has 2800 quadratic constraints
Variable types: 32021 continuous, 2800 integer (2800 binary)
Coefficient statistics:
  Matrix range     [3e-04, 3e+03]
  QMatrix range    [2e-03, 8e-03]
  QLMatrix range   [3e-01, 6e+01]
  Objective range  [1e+00, 1e+00]
  Bounds range     [1e+00, 1e+00]
  RHS range        [1e+00, 9e+03]
Presolve removed 49143 rows and 15035 columns
Presolve time: 0.28s
Presolved: 11539 rows, 19786 columns, 73134 nonzeros
Presolved model has 2800 quadratic constraint(s)
Variable types: 16986 continuous, 2800 integer (2800 binary)

Root relaxation: objective 8.623514e+04, 9592 iterations, 0.26 seconds (0.36 work units)

    Nodes    |    Current Node    |     Objective Bounds      |     Work
 Expl Unexpl |  Obj  Depth IntInf | Incumbent    BestBd   Gap | It/Node Time

H    0     0                    844501.11105 86235.1424  89.8%     -    0s
*    0     0               0    844501.11105 86235.1424  89.8%     -    0s
     0     0 556623.368    0  731 844501.111 556623.368  34.1%     -    1s
     0     0 808629.453    0  462 844501.111 808629.453  4.25%     -    1s
     0     0 808739.114    0  110 844501.111 808739.114  4.23%     -    2s
     0     0 808859.444    0  138 844501.111 808859.444  4.22%     -    2s
     0     0 808861.923    0  138 844501.111 808861.923  4.22%     -    2s
     0     0 808862.888    0  138 844501.111 808862.888  4.22%     -    2s
     0     0 808865.816    0  138 844501.111 808865.816  4.22%     -    2s
     0     2 808865.816    0  138 844501.111 808865.816  4.22%     -    3s
    27    32 808996.426    7   81 844501.111 808904.696  4.22%  60.4    5s
H  100   101                    809106.58469 808904.696  0.02%  60.2    7s
*  100   101              23    809106.58469 808904.696  0.02%  60.3    7s

Cutting planes:
  Gomory: 47
  Lift-and-project: 17
  Implied bound: 281
  MIR: 25
  Flow cover: 129
  RLT: 379
  Relax-and-lift: 95

Explored 106 nodes (31298 simplex iterations) in 8.18 seconds (10.59 work units)
Thread count was 4 (of 128 available processors)

Solution count 3: 809107 809107 844501 

Optimal solution found (tolerance 1.00e-03)
Warning: max constraint violation (2.0289e-08) exceeds tolerance
Best objective 8.091065846908e+05, best bound 8.089046963429e+05, gap 0.0250%
